(set-logic QF_UF)
(declare-fun A0 () Bool)
(declare-fun A1 () Bool)
(declare-fun A2 () Bool)
(declare-fun A3 () Bool)
(declare-fun A4 () Bool)
(declare-fun A5 () Bool)
(declare-fun A6 () Bool)
(declare-fun A7 () Bool)
(declare-fun A9 () Bool)
(declare-fun A10 () Bool)
(declare-fun A12 () Bool)
(declare-fun A13 () Bool)
(declare-fun A14 () Bool)
(declare-fun A16 () Bool)
(declare-fun A17 () Bool)
(declare-fun A18 () Bool)
(declare-fun A19 () Bool)
(declare-fun A20 () Bool)
(declare-fun A21 () Bool)
(declare-fun A22 () Bool)
(declare-fun A23 () Bool)
(declare-fun A24 () Bool)
(assert (let ((.def_0 (or A7 A10))) (let ((.def_1 (not .def_0))) (let ((.def_2 (not A5))) (let ((.def_3 (= .def_2 A24))) (let ((.def_4 (not .def_3))) (let ((.def_5 (or .def_4 .def_1))) (let ((.def_6 (not .def_5))) (let ((.def_7 (not A12))) (let ((.def_8 (and .def_7 A1))) (let ((.def_9 (not .def_8))) (let ((.def_10 (not A13))) (let ((.def_11 (or .def_10 A23))) (let ((.def_12 (and .def_11 .def_9))) (let ((.def_13 (not .def_12))) (let ((.def_14 (and .def_13 .def_6))) (let ((.def_15 (not .def_14))) (let ((.def_16 (not A14))) (let ((.def_17 (or .def_16 A16))) (let ((.def_18 (not .def_17))) (let ((.def_19 (and .def_16 A14))) (let ((.def_20 (and .def_19 .def_18))) (let ((.def_21 (not .def_20))) (let ((.def_22 (not A21))) (let ((.def_23 (and .def_22 .def_10))) (let ((.def_24 (not A20))) (let ((.def_25 (and A19 .def_24))) (let ((.def_26 (not .def_25))) (let ((.def_27 (and .def_26 .def_23))) (let ((.def_28 (not .def_27))) (let ((.def_29 (or .def_28 .def_21))) (let ((.def_30 (not .def_29))) (let ((.def_31 (= .def_30 .def_15))) (let ((.def_32 (not .def_31))) (let ((.def_33 (not A22))) (let ((.def_34 (not A10))) (let ((.def_35 (and .def_34 .def_33))) (let ((.def_36 (not A6))) (let ((.def_37 (and .def_36 A13))) (let ((.def_38 (not .def_37))) (let ((.def_39 (or .def_38 .def_35))) (let ((.def_40 (and A13 .def_33))) (let ((.def_41 (not A18))) (let ((.def_42 (and .def_41 A6))) (let ((.def_43 (not .def_42))) (let ((.def_44 (or .def_43 .def_40))) (let ((.def_45 (or .def_44 .def_39))) (let ((.def_46 (not .def_45))) (let ((.def_47 (and .def_36 A17))) (let ((.def_48 (and A2 .def_34))) (let ((.def_49 (or .def_48 .def_47))) (let ((.def_50 (and .def_24 A20))) (let ((.def_51 (not .def_50))) (let ((.def_52 (or A20 A4))) (let ((.def_53 (or .def_52 .def_51))) (let ((.def_54 (not .def_53))) (let ((.def_55 (and .def_54 .def_49))) (let ((.def_56 (not .def_55))) (let ((.def_57 (and .def_56 .def_46))) (let ((.def_58 (or .def_57 .def_32))) (let ((.def_59 (not .def_58))) (let ((.def_60 (and A14 A22))) (let ((.def_61 (and A9 .def_41))) (let ((.def_62 (not .def_61))) (let ((.def_63 (or .def_62 .def_60))) (let ((.def_64 (or A12 A3))) (let ((.def_65 (not .def_64))) (let ((.def_66 (not A1))) (let ((.def_67 (= .def_66 A13))) (let ((.def_68 (and .def_67 .def_65))) (let ((.def_69 (not .def_68))) (let ((.def_70 (and .def_69 .def_63))) (let ((.def_71 (not .def_70))) (let ((.def_72 (and A9 A2))) (let ((.def_73 (not .def_72))) (let ((.def_74 (and .def_33 .def_24))) (let ((.def_75 (not .def_74))) (let ((.def_76 (and .def_75 .def_73))) (let ((.def_77 (and A21 A7))) (let ((.def_78 (not .def_77))) (let ((.def_79 (or .def_66 .def_41))) (let ((.def_80 (not .def_79))) (let ((.def_81 (= .def_80 .def_78))) (let ((.def_82 (and .def_81 .def_76))) (let ((.def_83 (and .def_82 .def_71))) (let ((.def_84 (not A23))) (let ((.def_85 (and .def_84 A5))) (let ((.def_86 (or A7 .def_2))) (let ((.def_87 (or .def_86 .def_85))) (let ((.def_88 (not .def_87))) (let ((.def_89 (or A19 .def_34))) (let ((.def_90 (not .def_89))) (let ((.def_91 (not A2))) (let ((.def_92 (not A0))) (let ((.def_93 (and .def_92 .def_91))) (let ((.def_94 (and .def_93 .def_90))) (let ((.def_95 (and .def_94 .def_88))) (let ((.def_96 (not .def_95))) (let ((.def_97 (not A7))) (let ((.def_98 (and .def_2 .def_97))) (let ((.def_99 (not A4))) (let ((.def_100 (and .def_33 .def_99))) (let ((.def_101 (or .def_100 .def_98))) (let ((.def_102 (not .def_101))) (let ((.def_103 (or A19 A19))) (let ((.def_104 (or .def_33 A24))) (let ((.def_105 (or .def_104 .def_103))) (let ((.def_106 (= .def_105 .def_102))) (let ((.def_107 (= .def_106 .def_96))) (let ((.def_108 (or .def_107 .def_83))) (let ((.def_109 (not .def_108))) (let ((.def_110 (or .def_109 .def_59))) (let ((.def_111 (not .def_110))) .def_111)))))))))))))))))))))))))))))))))))))))))))))))))))))))))))))))))))))))))))))))))))))))))))))))))))))))))))))))))
(check-sat)
